SCIP version 5.0.0 [precision: 8 byte] [memory: block] [mode: optimized] [LP solver: NONE] [GitHash: 3bbd232]
Copyright (C) 2002-2017 Konrad-Zuse-Zentrum fuer Informationstechnik Berlin (ZIB)

External codes: 
  Readline EditLine w  GNU library for command line editing (gnu.org/s/readline)
  CppAD 20160000.1     Algorithmic Differentiation of C++ algorithms developed by B. Bell (www.coin-or.org/CppAD)
  ZLIB 1.2.5           General purpose compression library by J. Gailly and M. Adler (zlib.net)
  GMP 6.1.2            GNU Multiple Precision Arithmetic Library developed by T. Granlund (gmplib.org)

user parameter file <scip.set> not found - using default parameters

read problem <../../Split_data/output/biodeg/9/0_sample_biodeg.logreg>
============

File name	:	../../Split_data/output/biodeg/9/0_sample_biodeg.logreg
Problem name 	:	0_sample_biodeg
Number of data	:	844
Number of var	:	41
The given data has linear dependence
1 sets of column vector are linearly dependent:
{ 19}, 

[dim=1] time: 0.026882
[dim=2] time: 0.057363
[dim=3] time: 0.091508
[dim=4] time: 0.122841
[dim=5] time: 0.153586
[dim=6] time: 0.184536
[dim=7] time: 0.212994
[dim=8] time: 0.254478
[dim=9] time: 0.289657
[dim=10] time: 0.324785
[dim=11] time: 0.351073
[dim=12] time: 0.375365
[dim=13] time: 0.400682
[dim=14] time: 0.429957
[dim=15] time: 0.463468
[dim=16] time: 0.487568
[dim=17] time: 0.516345
[dim=18] time: 0.540898
[dim=19] time: 0.564003
[dim=20] time: 0.583442
[dim=21] time: 0.600402
[dim=22] time: 0.616394
[dim=23] time: 0.633408
[dim=24] time: 0.647238
[dim=25] time: 0.661459
[dim=26] time: 0.67884
[dim=27] time: 0.696202
[dim=28] time: 0.710146
[dim=29] Time of forward = 0.723257sec.
AIC: 511.709
k: 28

[dim=40] time: 0.136083
[dim=39] time: 0.190212
[dim=38] time: 0.233577
[dim=37] time: 0.283084
[dim=36] time: 0.332743
[dim=35] time: 0.38617
[dim=34] time: 0.426593
[dim=33] time: 0.479101
[dim=32] time: 0.523003
[dim=31] time: 0.564607
[dim=30] time: 0.606817
[dim=29] time: 0.649821
[dim=28] time: 0.694273
[dim=27] time: 0.729761
[dim=26] time: 0.762702
[dim=25] time: 0.800525
[dim=24] Time of backward = 0.8297sec.
AIC: 503.685
k: 25
